
334
1000
   700      3
   699      2
   698      3
   697      1
   696      3
   692      2
   691      2
   685      2
   684      1
   682      1
   681      2
   678      1
   675      1
   673      1
   672      1
   669      4
   665      2
   664      3
   663      1
   662      1
   661      1
   660      1
   658      1
   657      3
   656      3
   655      1
   654      1
   652      1
   649      1
   648      1
   646      1
   645      1
   644      1
   640      2
   639      1
   638      2
   637      1
   636      1
   635      1
   634      1
   630      2
   628      1
   627      2
   626      3
   625      2
   623      1
   620      2
   618      1
   614      2
   613      1
   612      1
   611      3
   607      1
   606      2
   604      1
   603      1
   601      1
   600      1
   597      2
   591      1
   590      1
   589      1
   588      1
   587      1
   585      1
   584      1
   583      1
   582      1
   581      3
   579      2
   578      2
   576      3
   575      1
   573      1
   571      1
   570      1
   569      1
   568      1
   567      1
   565      1
   564      3
   562      1
   557      1
   554      1
   553      2
   548      2
   547      2
   544      1
   543      1
   541      1
   538      1
   535      1
   534      1
   531      1
   530      1
   529      1
   528      1
   527      1
   525      1
   524      1
   523      2
   522      1
   521      2
   519      1
   516      1
   515      1
   513      2
   510      1
   509      2
   508      2
   504      3
   501      1
   499      3
   498      1
   496      1
   494      1
   492      1
   491      1
   487      3
   484      1
   483      1
   482      2
   479      4
   478      1
   477      1
   475      1
   474      1
   473      2
   471      1
   470      1
   469      3
   467      1
   465      1
   464      2
   463      2
   462      1
   461      1
   457      1
   455      2
   454      1
   453      1
   452      1
   449      1
   447      2
   445      1
   442      1
   441      2
   440      2
   439      1
   431      1
   429      1
   426      1
   425      2
   424      1
   423      2
   420      1
   417      2
   416      2
   415      1
   413      1
   411      2
   409      3
   407      2
   406      3
   405      2
   404      1
   403      3
   402      1
   398      1
   397      2
   396      1
   395      1
   394      1
   391      2
   390      2
   389      1
   388      2
   386      2
   382      1
   381      2
   380      2
   379      3
   378      1
   377      1
   376      2
   369      1
   367      1
   365      2
   364      1
   363      2
   361      1
   359      1
   358      1
   357      1
   355      1
   349      1
   347      3
   345      1
   343      1
   342      2
   341      1
   339      1
   338      2
   337      1
   335      1
   334      1
   331      1
   330      1
   329      2
   328      1
   324      2
   322      2
   321      1
   319      1
   318      3
   316      1
   313      1
   312      3
   311      2
   309      1
   308      2
   307      2
   304      3
   301      1
   299      1
   295      1
   293      1
   291      4
   288      1
   285      3
   283      1
   281      1
   278      1
   277      1
   275      1
   274      1
   273      2
   272      1
   271      2
   269      1
   266      1
   261      1
   259      1
   257      2
   255      1
   254      1
   253      2
   249      2
   248      1
   244      1
   243      1
   241      2
   240      1
   238      1
   235      1
   234      1
   233      2
   232      2
   228      1
   227      1
   224      2
   223      2
   222      2
   220      3
   219      1
   218      1
   216      1
   215      2
   213      2
   212      1
   211      3
   209      1
   206      1
   205      1
   204      2
   201      1
   199      3
   196      2
   195      1
   194      1
   191      1
   188      4
   186      1
   185      1
   184      1
   181      2
   180      1
   179      2
   177      1
   173      2
   172      1
   171      3
   170      3
   169      1
   168      1
   167      1
   166      1
   165      2
   164      1
   163      1
   160      1
   159      1
   158      1
   157      2
   156      2
   155      1
   154      2
   153      1
   151      1
   149      1
   148      2
   147      3
   146      1
   143      3
   142      1
   139      3
   138      1
   137      1
   134      2
   133      3
   131      3
   129      1
   124      1
   121      1
   117      2
   113      1
   112      1
   108      1
   107      2
   106      1
   103      2
   102      1
   101      1
   100      2




The initial LP solution: time=0.71


File: BPP_500_1000_0.1_0.7_2.txt  Instance No. 1
Wed Feb 25 13:43:49 2015

LP solution: lpval=199.8400402414487 lpbnd=200

1: 0:1 224:1 obj 1\\
1: 1:1 223:1 obj 1\\
1.952663131381017: 2:1 276:1 330:1 obj 1\\
3: 4:1 222:1 obj 1\\
2: 5:1 220:1 obj 1\\
1: 6:1 219:1 obj 1\\
1: 6:1 221:1 obj 1\\
0.4332228318013356: 7:1 216:1 obj 1\\
1: 8:1 215:1 obj 1\\
1: 9:1 214:1 obj 1\\
1: 10:1 213:1 obj 1\\
1: 10:1 214:1 obj 1\\
1: 11:1 211:1 obj 1\\
1: 12:1 210:1 obj 1\\
1: 14:1 209:1 obj 1\\
1: 15:1 206:1 obj 1\\
1: 15:1 207:1 obj 1\\
1: 16:1 204:1 obj 1\\
1: 16:1 205:1 obj 1\\
1: 18:1 203:1 obj 1\\
1: 19:1 202:1 obj 1\\
1: 20:1 201:1 obj 1\\
1: 22:1 199:1 obj 1\\
1: 23:1 198:1 obj 1\\
1: 25:1 197:1 obj 1\\
0.5457054572294052: 26:1 249:1 331:1 obj 1\\
1: 27:1 196:1 obj 1\\
0.577434954293207: 28:1 195:1 obj 1\\
1: 31:1 194:1 obj 1\\
1: 32:1 254:1 323:1 obj 1\\
1: 33:1 191:1 obj 1\\
1: 34:1 190:1 obj 1\\
1: 36:1 189:1 obj 1\\
1: 37:1 188:1 obj 1\\
1: 38:1 187:1 obj 1\\
1: 40:1 185:1 obj 1\\
0.5925792433862466: 41:1 244:1 324:1 obj 1\\
0.9162354424784175: 42:1 247:1 322:1 obj 1\\
0.2875468592583388: 44:1 251:1 318:1 obj 1\\
1: 45:1 183:1 obj 1\\
2: 46:1 180:1 obj 1\\
1: 47:1 178:1 obj 1\\
2: 48:1 177:1 obj 1\\
1: 50:1 176:1 obj 1\\
1: 51:1 175:1 obj 1\\
1: 52:1 173:1 obj 1\\
1: 53:1 172:1 obj 1\\
1: 54:1 170:1 obj 1\\
1: 55:1 169:1 obj 1\\
1: 56:1 168:1 obj 1\\
2: 58:1 166:1 obj 1\\
1: 59:1 161:1 obj 1\\
1: 60:1 161:1 obj 1\\
1: 61:1 160:1 obj 1\\
1: 62:1 160:1 obj 1\\
1: 63:1 159:1 obj 1\\
1: 64:1 158:1 obj 1\\
1: 65:1 157:1 obj 1\\
1: 66:1 156:1 obj 1\\
1: 67:1 156:1 obj 1\\
0.7779792583230422: 68:1 228:1 320:1 obj 1\\
1: 69:1 155:1 obj 1\\
0.03367724268855132: 69:1 230:1 316:1 obj 1\\
0.3526307373635715: 70:1 229:1 317:1 obj 1\\
0.3036234798576813: 70:1 234:1 311:1 obj 1\\
1: 71:1 153:1 obj 1\\
2: 71:1 154:1 obj 1\\
1: 72:1 152:1 obj 1\\
1: 73:1 151:1 obj 1\\
1: 74:1 150:1 obj 1\\
1: 76:1 149:1 obj 1\\
0.3940231512584335: 77:1 229:1 311:1 obj 1\\
0.3378471286903405: 78:1 227:1 314:1 obj 1\\
0.9682705029361982: 80:1 229:1 308:1 obj 1\\
0.3398250710518379: 80:1 232:1 302:1 obj 1\\
0.3881237111913188: 80:1 233:1 301:1 obj 1\\
0.5667771681986644: 81:1 227:1 311:1 obj 1\\
1: 82:1 145:1 obj 1\\
1: 83:1 144:1 obj 1\\
2: 84:1 143:1 obj 1\\
1: 85:1 141:1 obj 1\\
1: 86:1 140:1 obj 1\\
1: 87:1 138:1 obj 1\\
1: 88:1 137:1 obj 1\\
1: 90:1 135:1 obj 1\\
1: 91:1 132:1 obj 1\\
1: 93:1 130:1 obj 1\\
1: 94:1 129:1 obj 1\\
1: 95:1 128:1 obj 1\\
1: 97:1 127:1 obj 1\\
1: 98:1 125:1 obj 1\\
1: 100:1 124:1 obj 1\\
1: 101:1 123:1 obj 1\\
2: 102:1 122:1 obj 1\\
1: 104:1 119:1 obj 1\\
0.5281877639133277: 105:1 120:1 obj 1\\
2: 106:1 118:1 obj 1\\
1: 108:1 117:1 obj 1\\
1: 109:1 116:1 obj 1\\
1: 110:1 114:1 obj 1\\
1: 111:1 112:1 obj 1\\
1: 112:2 obj 1\\
1: 133:1 162:1 321:1 obj 1\\
0.6796501421036758: 134:1 173:1 312:1 obj 1\\
0.5395369465527523: 136:1 163:1 319:1 obj 1\\
0.7147985212581052: 146:1 163:1 307:1 obj 1\\
0.3405677275482604: 182:1 218:2 obj 1\\
0.2680587648910731: 49:1 262:1 297:1 obj 1\\
0.565002689622403: 21:1 292:2 obj 1\\
0.6474010705008566: 163:2 281:1 obj 1\\
1: 23:1 199:1 obj 1\\
0.4542945427705948: 44:1 249:1 320:1 obj 1\\
1: 51:1 176:1 obj 1\\
0.08376455752158249: 130:1 162:1 322:1 obj 1\\
0.7319412351089269: 147:1 202:1 262:1 obj 1\\
0.0343105033870974: 126:1 216:1 268:1 obj 1\\
0.9076068333436985: 127:1 212:1 272:1 obj 1\\
0.4604630534472477: 136:1 221:1 257:1 obj 1\\
1: 157:1 164:1 287:1 obj 1\\
0.06904999817778701: 2:1 304:1 312:1 obj 1\\
0.824935766169731: 44:1 274:1 291:1 obj 1\\
0.5063296032283754: 68:1 247:1 292:1 obj 1\\
0.4675333351884329: 78:1 239:1 298:1 obj 1\\
0.1423933395680894: 78:1 241:1 290:1 obj 1\\
0.5168401921816943: 80:1 226:1 313:1 obj 1\\
0.5999405979221226: 122:1 165:1 324:1 obj 1\\
0.482584258249898: 133:1 181:1 303:1 obj 1\\
0.7806761586161091: 147:1 184:1 284:1 obj 1\\
0.2976801585871762: 35:1 279:1 294:1 obj 1\\
1: 40:1 268:1 303:1 obj 1\\
0.095738488345531: 43:1 250:1 320:1 obj 1\\
0.6621528713096595: 43:1 257:1 314:1 obj 1\\
0.965218891543165: 79:1 260:1 270:1 obj 1\\
0.7338841179684352: 85:1 229:1 295:1 obj 1\\
0.095738488345531: 89:1 217:1 311:1 obj 1\\
0.3469057066066541: 115:1 246:2 obj 1\\
0.3805829492952048: 121:1 211:1 277:1 obj 1\\
0.2593728703738623: 122:1 182:1 313:1 obj 1\\
0.3670071123476566: 126:1 238:1 244:1 obj 1\\
0.47279404543595: 139:1 236:2 obj 1\\
0.2832418628807858: 146:1 181:1 286:1 obj 1\\
1: 148:1 171:1 296:1 obj 1\\
0.7167581371192142: 0:1 276:1 332:1 obj 1\\
0.4718122360866724: 15:1 281:1 313:1 obj 1\\
0.8074757560524792: 43:1 251:1 319:1 obj 1\\
0.6931676737863217: 51:1 264:1 292:1 obj 1\\
0.577434954293207: 53:1 255:1 300:1 obj 1\\
0.7023198414128238: 57:1 257:1 294:1 obj 1\\
1.715691138448582: 68:1 217:1 328:1 obj 1\\
0.720447810986467: 70:1 230:1 315:1 obj 1\\
0.5742473516777648: 77:1 246:1 287:1 obj 1\\
0.05222619655313721: 78:1 212:1 326:1 obj 1\\
0.4332228318013356: 81:1 261:1 267:1 obj 1\\
0.6194170507047952: 86:1 211:1 320:1 obj 1\\
1: 100:1 243:1 263:1 obj 1\\
0.05485320710197694: 108:1 214:1 289:1 obj 1\\
1: 113:1 235:1 258:1 obj 1\\
0.07988010415204294: 121:1 196:1 291:1 obj 1\\
0.401317615734754: 138:1 236:1 237:1 obj 1\\
0.4000594020778773: 165:1 182:1 265:1 obj 1\\
0.6811354550965208: 179:1 181:1 252:1 obj 1\\
0.4658253530773623: 184:2 248:1 obj 1\\
0.2852014787418948: 2:1 307:1 309:1 obj 1\\
0.01646926128547067: 3:1 292:1 319:1 obj 1\\
0.6118762888086812: 17:1 288:1 301:1 obj 1\\
0.9076068333436985: 23:1 277:1 311:1 obj 1\\
0.9807029545775654: 24:1 273:1 315:1 obj 1\\
0.7616419925503164: 35:1 285:2 obj 1\\
0.2843088615514175: 42:1 240:1 328:1 obj 1\\
0.9663227573114487: 69:1 256:1 281:1 obj 1\\
0.4718122360866724: 105:1 217:1 289:1 obj 1\\
0.4542945427705948: 107:1 196:1 313:1 obj 1\\
0.2720512177568433: 110:1 233:1 264:1 obj 1\\
0.6530942933933459: 115:1 236:1 256:1 obj 1\\
0.6601749289481621: 134:1 181:1 302:1 obj 1\\
0.4171356808727333: 166:2 279:1 obj 1\\
1: 196:1 208:1 210:1 obj 1\\
0.9477738034468628: 0:1 281:1 326:1 obj 1\\
0.3305787314997694: 1:1 276:1 331:1 obj 1\\
0.4226024318911005: 1:1 299:1 316:1 obj 1\\
1.566777168198664: 7:1 267:1 333:1 obj 1\\
1: 13:1 289:1 306:1 obj 1\\
1.731941235108927: 17:1 291:1 297:1 obj 1\\
0.2208052506536892: 21:1 261:1 324:1 obj 1\\
1.495244161904083: 24:1 270:1 319:1 obj 1\\
0.06095737988869598: 51:1 266:1 289:1 obj 1\\
0.623297971792281: 70:1 240:1 304:1 obj 1\\
0.7652134937756091: 75:1 241:1 293:1 obj 1\\
1: 92:1 218:1 305:1 obj 1\\
0.9812751743382049: 103:1 122:1 obj 1\\
0.01872482566179512: 103:1 229:1 277:1 obj 1\\
0.5866749080379416: 110:1 181:1 324:1 obj 1\\
1: 118:1 227:1 262:1 obj 1\\
1: 131:1 174:1 313:1 obj 1\\
0.0549620588448978: 138:1 227:1 245:1 obj 1\\
0.06103966197571764: 139:1 147:1 329:1 obj 1\\
1: 15:1 208:1 obj 1\\
0.5324666648115671: 17:1 290:1 298:1 obj 1\\
0.4542945427705948: 26:1 271:1 317:1 obj 1\\
0.422565045706793: 28:1 280:1 300:1 obj 1\\
0.8177841536316475: 30:1 261:1 320:1 obj 1\\
0.1822158463683525: 30:1 284:1 292:1 obj 1\\
0.0192970454224346: 41:1 273:1 295:1 obj 1\\
0.5754211510339395: 43:1 265:1 304:1 obj 1\\
0.7319412351089269: 49:1 246:1 318:1 obj 1\\
0.175064233830269: 80:1 257:1 274:1 obj 1\\
0.3805829492952048: 86:1 256:1 263:1 obj 1\\
0.5457054572294052: 107:1 231:1 271:1 obj 1\\
0.9451467928980231: 108:1 238:1 263:1 obj 1\\
0.2832418628807858: 109:1 173:1 332:1 obj 1\\
0.4718122360866724: 120:1 161:1 327:1 obj 1\\
1: 121:1 227:1 259:1 obj 1\\
0.4831598078183056: 130:1 226:1 253:1 obj 1\\
0.1775906706982641: 133:1 189:1 289:1 obj 1\\
0.3398250710518379: 133:1 233:1 242:1 obj 1\\
0.5437203254203482: 138:1 162:1 316:1 obj 1\\
0.4257526483222352: 139:1 186:1 287:1 obj 1\\
0.3188645449034792: 142:1 218:1 252:1 obj 1\\
0.5341746469226377: 146:1 192:1 275:1 obj 1\\
0.1657286382545333: 152:1 166:1 290:1 obj 1\\
0.5281877639133277: 161:1 164:1 282:1 obj 1\\
0.4675333351884329: 167:1 200:1 243:1 obj 1\\
0.2663069309763955: 169:1 174:1 268:1 obj 1\\
0.2347865062243909: 0:1 293:1 320:1 obj 1\\
0.2468188366091302: 1:1 295:1 318:1 obj 1\\
0.6930853916993017: 2:1 277:1 329:1 obj 1\\
0.3632428945692991: 35:1 280:1 291:1 obj 1\\
0.5006064615341973: 42:1 260:1 309:1 obj 1\\
0.4332228318013356: 44:1 234:1 333:1 obj 1\\
0.422565045706793: 53:1 231:1 325:1 obj 1\\
0.6118762888086812: 80:1 251:1 278:1 obj 1\\
0.904261511654469: 89:1 250:1 266:1 obj 1\\
1: 99:1 227:1 283:1 obj 1\\
1: 110:1 193:1 315:1 obj 1\\
0.15941135736581: 122:1 195:1 290:1 obj 1\\
0.6993825656365074: 130:1 214:1 268:1 obj 1\\
0.2220207416769578: 146:1 228:1 238:1 obj 1\\
0.4718122360866723: 152:1 164:1 292:1 obj 1\\
0.02451944688818308: 163:1 184:1 265:1 obj 1\\
0.5324666648115671: 174:1 200:1 239:1 obj 1\\
0.5168401921816943: 179:2 253:1 obj 1\\
0.2680587648910731: 186:1 202:1 225:1 obj 1\\
0.4658253530773623: 192:1 196:1 225:1 obj 1\\
0.2512998597185372: 3:1 303:1 312:1 obj 1\\
0.2141920597239079: 21:1 280:1 309:1 obj 1\\
0.09239316665630148: 23:1 272:1 317:1 obj 1\\
0.4767160148993673: 24:1 285:1 299:1 obj 1\\
1: 29:1 274:1 310:1 obj 1\\
1: 33:1 269:1 310:1 obj 1\\
0.577434954293207: 35:1 247:1 325:1 obj 1\\
1: 39:1 187:1 obj 1\\
0.3881237111913188: 41:1 278:1 288:1 obj 1\\
0.2988492344359676: 42:1 255:1 315:1 obj 1\\
0.5736570557007536: 43:1 263:1 306:1 obj 1\\
0.2855546775576377: 43:1 281:1 282:1 obj 1\\
0.2976801585871762: 57:1 243:1 313:1 obj 1\\
0.2347865062243909: 75:1 243:1 289:1 obj 1\\
0.03478110845683499: 79:1 264:1 266:1 obj 1\\
0.2661158820315648: 85:1 225:1 303:1 obj 1\\
0.7167581371192142: 109:1 217:1 286:1 obj 1\\
0.5395369465527523: 121:1 221:1 270:1 obj 1\\
0.598682384265246: 126:1 237:1 245:1 obj 1\\
0.7336930690236045: 130:1 169:1 318:1 obj 1\\
0.6601749289481621: 134:1 232:1 242:1 obj 1\\
0.6811354550965208: 142:1 189:1 281:1 obj 1\\
0.2457642272615157: 146:1 214:1 251:1 obj 1\\
0.4263429442992464: 147:1 163:1 306:1 obj 1\\
0.2851841605400904: 152:1 179:1 279:1 obj 1\\
0.04016697010316428: 152:1 212:1 245:1 obj 1\\
0.1862575585290346: 162:2 282:1 obj 1\\
0.5324666648115671: 167:1 216:1 229:1 obj 1\\
0.1006132021060187: 174:2 263:1 obj 1\\
0.1006815532095322: 0:1 299:1 317:1 obj 1\\
0.7322308789959922: 3:1 304:1 311:1 obj 1\\
0.5281877639133277: 15:1 261:1 327:1 obj 1\\
0.1237158112708254: 17:1 255:1 331:1 obj 1\\
0.04733686861898356: 24:1 251:1 330:1 obj 1\\
0.2458749463249823: 51:1 230:1 329:1 obj 1\\
0.03172949706380179: 77:1 231:1 308:1 obj 1\\
0.4658253530773623: 96:1 238:1 275:1 obj 1\\
0.5341746469226377: 96:1 248:1 260:1 obj 1\\
0.1412738742052151: 110:1 189:1 319:1 obj 1\\
0.09239316665630148: 127:1 240:1 241:1 obj 1\\
0.04041364426609684: 139:1 227:1 244:1 obj 1\\
0.03710799501553841: 152:1 173:1 284:1 obj 1\\
0.3061885867866918: 181:1 186:1 245:1 obj 1\\
0.263153688340983: 184:1 195:1 234:1 obj 1\\






File: BPP_500_1000_0.1_0.7_2.txt  Instance No. 1
Wed Feb 25 13:43:49 2015

LP0 Time: 0.71 IPTime: 0.72 The best integer solution (200):

1: 0:1 224:1 obj 1\\
1: 1:1 223:1 obj 1\\
2: 2:1 276:1 330:1 obj 1\\
3: 4:1 222:1 obj 1\\
2: 5:1 220:1 obj 1\\
1: 6:1 219:1 obj 1\\
1: 6:1 221:1 obj 1\\
1: 8:1 215:1 obj 1\\
1: 9:1 214:1 obj 1\\
1: 10:1 213:1 obj 1\\
1: 10:1 214:1 obj 1\\
1: 11:1 211:1 obj 1\\
1: 12:1 210:1 obj 1\\
1: 14:1 209:1 obj 1\\
1: 15:1 206:1 obj 1\\
1: 15:1 207:1 obj 1\\
1: 16:1 204:1 obj 1\\
1: 16:1 205:1 obj 1\\
1: 18:1 203:1 obj 1\\
1: 19:1 202:1 obj 1\\
1: 20:1 201:1 obj 1\\
1: 22:1 199:1 obj 1\\
1: 23:1 198:1 obj 1\\
1: 25:1 197:1 obj 1\\
1: 26:1 249:1 331:1 obj 1\\
1: 27:1 196:1 obj 1\\
1: 28:1 195:1 obj 1\\
1: 31:1 194:1 obj 1\\
1: 32:1 254:1 323:1 obj 1\\
1: 33:1 191:1 obj 1\\
1: 34:1 190:1 obj 1\\
1: 36:1 189:1 obj 1\\
1: 37:1 188:1 obj 1\\
1: 38:1 187:1 obj 1\\
1: 40:1 185:1 obj 1\\
1: 41:1 244:1 324:1 obj 1\\
1: 42:1 247:1 322:1 obj 1\\
1: 45:1 183:1 obj 1\\
2: 46:1 180:1 obj 1\\
1: 47:1 178:1 obj 1\\
2: 48:1 177:1 obj 1\\
1: 50:1 176:1 obj 1\\
1: 51:1 175:1 obj 1\\
1: 52:1 173:1 obj 1\\
1: 53:1 172:1 obj 1\\
1: 54:1 170:1 obj 1\\
1: 55:1 169:1 obj 1\\
1: 56:1 168:1 obj 1\\
2: 58:1 166:1 obj 1\\
1: 59:1 161:1 obj 1\\
1: 60:1 161:1 obj 1\\
1: 61:1 160:1 obj 1\\
1: 62:1 160:1 obj 1\\
1: 63:1 159:1 obj 1\\
1: 64:1 158:1 obj 1\\
1: 65:1 157:1 obj 1\\
1: 66:1 156:1 obj 1\\
1: 67:1 156:1 obj 1\\
1: 68:1 228:1 320:1 obj 1\\
1: 69:1 155:1 obj 1\\
1: 71:1 153:1 obj 1\\
2: 71:1 154:1 obj 1\\
1: 72:1 152:1 obj 1\\
1: 73:1 151:1 obj 1\\
1: 74:1 150:1 obj 1\\
1: 76:1 149:1 obj 1\\
1: 80:1 229:1 308:1 obj 1\\
1: 81:1 227:1 311:1 obj 1\\
1: 82:1 145:1 obj 1\\
1: 83:1 144:1 obj 1\\
2: 84:1 143:1 obj 1\\
1: 85:1 141:1 obj 1\\
1: 86:1 140:1 obj 1\\
1: 87:1 138:1 obj 1\\
1: 88:1 137:1 obj 1\\
1: 90:1 135:1 obj 1\\
1: 91:1 132:1 obj 1\\
1: 93:1 130:1 obj 1\\
1: 94:1 129:1 obj 1\\
1: 95:1 128:1 obj 1\\
1: 97:1 127:1 obj 1\\
1: 98:1 125:1 obj 1\\
1: 100:1 124:1 obj 1\\
1: 101:1 123:1 obj 1\\
2: 102:1 122:1 obj 1\\
1: 104:1 119:1 obj 1\\
1: 105:1 120:1 obj 1\\
2: 106:1 118:1 obj 1\\
1: 108:1 117:1 obj 1\\
1: 109:1 116:1 obj 1\\
1: 110:1 114:1 obj 1\\
1: 111:1 112:1 obj 1\\
1: 112:2 obj 1\\
1: 133:1 162:1 321:1 obj 1\\
1: 134:1 173:1 312:1 obj 1\\
1: 146:1 163:1 307:1 obj 1\\
1: 21:1 292:2 obj 1\\
1: 163:2 281:1 obj 1\\
1: 23:1 199:1 obj 1\\
1: 51:1 176:1 obj 1\\
1: 147:1 202:1 262:1 obj 1\\
1: 127:1 212:1 272:1 obj 1\\
1: 157:1 164:1 287:1 obj 1\\
1: 44:1 274:1 291:1 obj 1\\
1: 80:1 226:1 313:1 obj 1\\
1: 122:1 165:1 324:1 obj 1\\
1: 133:1 181:1 303:1 obj 1\\
1: 147:1 184:1 284:1 obj 1\\
1: 40:1 268:1 303:1 obj 1\\
1: 43:1 257:1 314:1 obj 1\\
1: 79:1 260:1 270:1 obj 1\\
1: 85:1 229:1 295:1 obj 1\\
1: 148:1 171:1 296:1 obj 1\\
1: 0:1 276:1 332:1 obj 1\\
1: 43:1 251:1 319:1 obj 1\\
1: 51:1 264:1 292:1 obj 1\\
1: 53:1 255:1 300:1 obj 1\\
1: 57:1 257:1 294:1 obj 1\\
2: 68:1 217:1 328:1 obj 1\\
1: 70:1 230:1 315:1 obj 1\\
1: 77:1 246:1 287:1 obj 1\\
1: 86:1 211:1 320:1 obj 1\\
1: 100:1 243:1 263:1 obj 1\\
1: 113:1 235:1 258:1 obj 1\\
1: 179:1 181:1 252:1 obj 1\\
1: 17:1 288:1 301:1 obj 1\\
1: 23:1 277:1 311:1 obj 1\\
1: 24:1 273:1 315:1 obj 1\\
1: 35:1 285:2 obj 1\\
1: 69:1 256:1 281:1 obj 1\\
1: 115:1 236:1 256:1 obj 1\\
1: 196:1 208:1 210:1 obj 1\\
1: 0:1 281:1 326:1 obj 1\\
2: 7:1 267:1 333:1 obj 1\\
1: 13:1 289:1 306:1 obj 1\\
2: 17:1 291:1 297:1 obj 1\\
1: 24:1 270:1 319:1 obj 1\\
1: 70:1 240:1 304:1 obj 1\\
1: 75:1 241:1 293:1 obj 1\\
1: 92:1 218:1 305:1 obj 1\\
1: 103:1 122:1 obj 1\\
1: 118:1 227:1 262:1 obj 1\\
1: 131:1 174:1 313:1 obj 1\\
1: 15:1 208:1 obj 1\\
1: 30:1 261:1 320:1 obj 1\\
1: 49:1 246:1 318:1 obj 1\\
1: 107:1 231:1 271:1 obj 1\\
1: 108:1 238:1 263:1 obj 1\\
1: 121:1 227:1 259:1 obj 1\\
1: 138:1 162:1 316:1 obj 1\\
1: 146:1 192:1 275:1 obj 1\\
1: 161:1 164:1 282:1 obj 1\\
1: 2:1 277:1 329:1 obj 1\\
1: 80:1 251:1 278:1 obj 1\\
1: 89:1 250:1 266:1 obj 1\\
1: 99:1 227:1 283:1 obj 1\\
1: 110:1 193:1 315:1 obj 1\\
1: 130:1 214:1 268:1 obj 1\\
1: 174:1 200:1 239:1 obj 1\\
1: 29:1 274:1 310:1 obj 1\\
1: 33:1 269:1 310:1 obj 1\\
1: 35:1 247:1 325:1 obj 1\\
1: 39:1 187:1 obj 1\\
1: 43:1 263:1 306:1 obj 1\\
1: 109:1 217:1 286:1 obj 1\\
1: 121:1 221:1 270:1 obj 1\\
1: 126:1 237:1 245:1 obj 1\\
1: 130:1 169:1 318:1 obj 1\\
1: 134:1 232:1 242:1 obj 1\\
1: 142:1 189:1 281:1 obj 1\\
1: 152:1 179:1 279:1 obj 1\\
1: 167:1 216:1 229:1 obj 1\\
1: 3:1 304:1 311:1 obj 1\\
1: 15:1 261:1 327:1 obj 1\\
1: 96:1 248:1 260:1 obj 1\\
1: 1:1 298:1 317:1 obj 1\\
1: 42:1 186:1 obj 1\\
1: 78:1 234:1 302:1 obj 1\\
1: 110:1 196:1 309:1 obj 1\\
1: 139:1 166:1 313:1 obj 1\\
1: 136:1 184:1 299:1 obj 1\\
1: 44:1 253:1 319:1 obj 1\\
1: 182:1 233:1 289:1 290:1 obj 1\\
1: 218:1 236:1 265:1 280:1 obj 1\\
1: 24:1 225:1 obj 1\\
1: 181:1 238:1 243:1 obj 1\\



The last LP solution 


File: BPP_500_1000_0.1_0.7_2.txt  Instance No. 1
Wed Feb 25 13:43:49 2015

LP solution: lpval=199.8400402414487 lpbnd=200

1: 0:1 224:1 obj 1\\
1: 1:1 223:1 obj 1\\
1.952663131381017: 2:1 276:1 330:1 obj 1\\
3: 4:1 222:1 obj 1\\
2: 5:1 220:1 obj 1\\
1: 6:1 219:1 obj 1\\
1: 6:1 221:1 obj 1\\
0.4332228318013356: 7:1 216:1 obj 1\\
1: 8:1 215:1 obj 1\\
1: 9:1 214:1 obj 1\\
1: 10:1 213:1 obj 1\\
1: 10:1 214:1 obj 1\\
1: 11:1 211:1 obj 1\\
1: 12:1 210:1 obj 1\\
1: 14:1 209:1 obj 1\\
1: 15:1 206:1 obj 1\\
1: 15:1 207:1 obj 1\\
1: 16:1 204:1 obj 1\\
1: 16:1 205:1 obj 1\\
1: 18:1 203:1 obj 1\\
1: 19:1 202:1 obj 1\\
1: 20:1 201:1 obj 1\\
1: 22:1 199:1 obj 1\\
1: 23:1 198:1 obj 1\\
1: 25:1 197:1 obj 1\\
0.5457054572294052: 26:1 249:1 331:1 obj 1\\
1: 27:1 196:1 obj 1\\
0.577434954293207: 28:1 195:1 obj 1\\
1: 31:1 194:1 obj 1\\
1: 32:1 254:1 323:1 obj 1\\
1: 33:1 191:1 obj 1\\
1: 34:1 190:1 obj 1\\
1: 36:1 189:1 obj 1\\
1: 37:1 188:1 obj 1\\
1: 38:1 187:1 obj 1\\
1: 40:1 185:1 obj 1\\
0.5925792433862466: 41:1 244:1 324:1 obj 1\\
0.9162354424784175: 42:1 247:1 322:1 obj 1\\
0.2875468592583388: 44:1 251:1 318:1 obj 1\\
1: 45:1 183:1 obj 1\\
2: 46:1 180:1 obj 1\\
1: 47:1 178:1 obj 1\\
2: 48:1 177:1 obj 1\\
1: 50:1 176:1 obj 1\\
1: 51:1 175:1 obj 1\\
1: 52:1 173:1 obj 1\\
1: 53:1 172:1 obj 1\\
1: 54:1 170:1 obj 1\\
1: 55:1 169:1 obj 1\\
1: 56:1 168:1 obj 1\\
2: 58:1 166:1 obj 1\\
1: 59:1 161:1 obj 1\\
1: 60:1 161:1 obj 1\\
1: 61:1 160:1 obj 1\\
1: 62:1 160:1 obj 1\\
1: 63:1 159:1 obj 1\\
1: 64:1 158:1 obj 1\\
1: 65:1 157:1 obj 1\\
1: 66:1 156:1 obj 1\\
1: 67:1 156:1 obj 1\\
0.7779792583230422: 68:1 228:1 320:1 obj 1\\
1: 69:1 155:1 obj 1\\
0.03367724268855132: 69:1 230:1 316:1 obj 1\\
0.3526307373635715: 70:1 229:1 317:1 obj 1\\
0.3036234798576813: 70:1 234:1 311:1 obj 1\\
1: 71:1 153:1 obj 1\\
2: 71:1 154:1 obj 1\\
1: 72:1 152:1 obj 1\\
1: 73:1 151:1 obj 1\\
1: 74:1 150:1 obj 1\\
1: 76:1 149:1 obj 1\\
0.3940231512584335: 77:1 229:1 311:1 obj 1\\
0.3378471286903405: 78:1 227:1 314:1 obj 1\\
0.9682705029361982: 80:1 229:1 308:1 obj 1\\
0.3398250710518379: 80:1 232:1 302:1 obj 1\\
0.3881237111913188: 80:1 233:1 301:1 obj 1\\
0.5667771681986644: 81:1 227:1 311:1 obj 1\\
1: 82:1 145:1 obj 1\\
1: 83:1 144:1 obj 1\\
2: 84:1 143:1 obj 1\\
1: 85:1 141:1 obj 1\\
1: 86:1 140:1 obj 1\\
1: 87:1 138:1 obj 1\\
1: 88:1 137:1 obj 1\\
1: 90:1 135:1 obj 1\\
1: 91:1 132:1 obj 1\\
1: 93:1 130:1 obj 1\\
1: 94:1 129:1 obj 1\\
1: 95:1 128:1 obj 1\\
1: 97:1 127:1 obj 1\\
1: 98:1 125:1 obj 1\\
1: 100:1 124:1 obj 1\\
1: 101:1 123:1 obj 1\\
2: 102:1 122:1 obj 1\\
1: 104:1 119:1 obj 1\\
0.5281877639133277: 105:1 120:1 obj 1\\
2: 106:1 118:1 obj 1\\
1: 108:1 117:1 obj 1\\
1: 109:1 116:1 obj 1\\
1: 110:1 114:1 obj 1\\
1: 111:1 112:1 obj 1\\
1: 112:2 obj 1\\
1: 133:1 162:1 321:1 obj 1\\
0.6796501421036758: 134:1 173:1 312:1 obj 1\\
0.5395369465527523: 136:1 163:1 319:1 obj 1\\
0.7147985212581052: 146:1 163:1 307:1 obj 1\\
0.3405677275482604: 182:1 218:2 obj 1\\
0.2680587648910731: 49:1 262:1 297:1 obj 1\\
0.565002689622403: 21:1 292:2 obj 1\\
0.6474010705008566: 163:2 281:1 obj 1\\
1: 23:1 199:1 obj 1\\
0.4542945427705948: 44:1 249:1 320:1 obj 1\\
1: 51:1 176:1 obj 1\\
0.08376455752158249: 130:1 162:1 322:1 obj 1\\
0.7319412351089269: 147:1 202:1 262:1 obj 1\\
0.0343105033870974: 126:1 216:1 268:1 obj 1\\
0.9076068333436985: 127:1 212:1 272:1 obj 1\\
0.4604630534472477: 136:1 221:1 257:1 obj 1\\
1: 157:1 164:1 287:1 obj 1\\
0.06904999817778701: 2:1 304:1 312:1 obj 1\\
0.824935766169731: 44:1 274:1 291:1 obj 1\\
0.5063296032283754: 68:1 247:1 292:1 obj 1\\
0.4675333351884329: 78:1 239:1 298:1 obj 1\\
0.1423933395680894: 78:1 241:1 290:1 obj 1\\
0.5168401921816943: 80:1 226:1 313:1 obj 1\\
0.5999405979221226: 122:1 165:1 324:1 obj 1\\
0.482584258249898: 133:1 181:1 303:1 obj 1\\
0.7806761586161091: 147:1 184:1 284:1 obj 1\\
0.2976801585871762: 35:1 279:1 294:1 obj 1\\
1: 40:1 268:1 303:1 obj 1\\
0.095738488345531: 43:1 250:1 320:1 obj 1\\
0.6621528713096595: 43:1 257:1 314:1 obj 1\\
0.965218891543165: 79:1 260:1 270:1 obj 1\\
0.7338841179684352: 85:1 229:1 295:1 obj 1\\
0.095738488345531: 89:1 217:1 311:1 obj 1\\
0.3469057066066541: 115:1 246:2 obj 1\\
0.3805829492952048: 121:1 211:1 277:1 obj 1\\
0.2593728703738623: 122:1 182:1 313:1 obj 1\\
0.3670071123476566: 126:1 238:1 244:1 obj 1\\
0.47279404543595: 139:1 236:2 obj 1\\
0.2832418628807858: 146:1 181:1 286:1 obj 1\\
1: 148:1 171:1 296:1 obj 1\\
0.7167581371192142: 0:1 276:1 332:1 obj 1\\
0.4718122360866724: 15:1 281:1 313:1 obj 1\\
0.8074757560524792: 43:1 251:1 319:1 obj 1\\
0.6931676737863217: 51:1 264:1 292:1 obj 1\\
0.577434954293207: 53:1 255:1 300:1 obj 1\\
0.7023198414128238: 57:1 257:1 294:1 obj 1\\
1.715691138448582: 68:1 217:1 328:1 obj 1\\
0.720447810986467: 70:1 230:1 315:1 obj 1\\
0.5742473516777648: 77:1 246:1 287:1 obj 1\\
0.05222619655313721: 78:1 212:1 326:1 obj 1\\
0.4332228318013356: 81:1 261:1 267:1 obj 1\\
0.6194170507047952: 86:1 211:1 320:1 obj 1\\
1: 100:1 243:1 263:1 obj 1\\
0.05485320710197694: 108:1 214:1 289:1 obj 1\\
1: 113:1 235:1 258:1 obj 1\\
0.07988010415204294: 121:1 196:1 291:1 obj 1\\
0.401317615734754: 138:1 236:1 237:1 obj 1\\
0.4000594020778773: 165:1 182:1 265:1 obj 1\\
0.6811354550965208: 179:1 181:1 252:1 obj 1\\
0.4658253530773623: 184:2 248:1 obj 1\\
0.2852014787418948: 2:1 307:1 309:1 obj 1\\
0.01646926128547067: 3:1 292:1 319:1 obj 1\\
0.6118762888086812: 17:1 288:1 301:1 obj 1\\
0.9076068333436985: 23:1 277:1 311:1 obj 1\\
0.9807029545775654: 24:1 273:1 315:1 obj 1\\
0.7616419925503164: 35:1 285:2 obj 1\\
0.2843088615514175: 42:1 240:1 328:1 obj 1\\
0.9663227573114487: 69:1 256:1 281:1 obj 1\\
0.4718122360866724: 105:1 217:1 289:1 obj 1\\
0.4542945427705948: 107:1 196:1 313:1 obj 1\\
0.2720512177568433: 110:1 233:1 264:1 obj 1\\
0.6530942933933459: 115:1 236:1 256:1 obj 1\\
0.6601749289481621: 134:1 181:1 302:1 obj 1\\
0.4171356808727333: 166:2 279:1 obj 1\\
1: 196:1 208:1 210:1 obj 1\\
0.9477738034468628: 0:1 281:1 326:1 obj 1\\
0.3305787314997694: 1:1 276:1 331:1 obj 1\\
0.4226024318911005: 1:1 299:1 316:1 obj 1\\
1.566777168198664: 7:1 267:1 333:1 obj 1\\
1: 13:1 289:1 306:1 obj 1\\
1.731941235108927: 17:1 291:1 297:1 obj 1\\
0.2208052506536892: 21:1 261:1 324:1 obj 1\\
1.495244161904083: 24:1 270:1 319:1 obj 1\\
0.06095737988869598: 51:1 266:1 289:1 obj 1\\
0.623297971792281: 70:1 240:1 304:1 obj 1\\
0.7652134937756091: 75:1 241:1 293:1 obj 1\\
1: 92:1 218:1 305:1 obj 1\\
0.9812751743382049: 103:1 122:1 obj 1\\
0.01872482566179512: 103:1 229:1 277:1 obj 1\\
0.5866749080379416: 110:1 181:1 324:1 obj 1\\
1: 118:1 227:1 262:1 obj 1\\
1: 131:1 174:1 313:1 obj 1\\
0.0549620588448978: 138:1 227:1 245:1 obj 1\\
0.06103966197571764: 139:1 147:1 329:1 obj 1\\
1: 15:1 208:1 obj 1\\
0.5324666648115671: 17:1 290:1 298:1 obj 1\\
0.4542945427705948: 26:1 271:1 317:1 obj 1\\
0.422565045706793: 28:1 280:1 300:1 obj 1\\
0.8177841536316475: 30:1 261:1 320:1 obj 1\\
0.1822158463683525: 30:1 284:1 292:1 obj 1\\
0.0192970454224346: 41:1 273:1 295:1 obj 1\\
0.5754211510339395: 43:1 265:1 304:1 obj 1\\
0.7319412351089269: 49:1 246:1 318:1 obj 1\\
0.175064233830269: 80:1 257:1 274:1 obj 1\\
0.3805829492952048: 86:1 256:1 263:1 obj 1\\
0.5457054572294052: 107:1 231:1 271:1 obj 1\\
0.9451467928980231: 108:1 238:1 263:1 obj 1\\
0.2832418628807858: 109:1 173:1 332:1 obj 1\\
0.4718122360866724: 120:1 161:1 327:1 obj 1\\
1: 121:1 227:1 259:1 obj 1\\
0.4831598078183056: 130:1 226:1 253:1 obj 1\\
0.1775906706982641: 133:1 189:1 289:1 obj 1\\
0.3398250710518379: 133:1 233:1 242:1 obj 1\\
0.5437203254203482: 138:1 162:1 316:1 obj 1\\
0.4257526483222352: 139:1 186:1 287:1 obj 1\\
0.3188645449034792: 142:1 218:1 252:1 obj 1\\
0.5341746469226377: 146:1 192:1 275:1 obj 1\\
0.1657286382545333: 152:1 166:1 290:1 obj 1\\
0.5281877639133277: 161:1 164:1 282:1 obj 1\\
0.4675333351884329: 167:1 200:1 243:1 obj 1\\
0.2663069309763955: 169:1 174:1 268:1 obj 1\\
0.2347865062243909: 0:1 293:1 320:1 obj 1\\
0.2468188366091302: 1:1 295:1 318:1 obj 1\\
0.6930853916993017: 2:1 277:1 329:1 obj 1\\
0.3632428945692991: 35:1 280:1 291:1 obj 1\\
0.5006064615341973: 42:1 260:1 309:1 obj 1\\
0.4332228318013356: 44:1 234:1 333:1 obj 1\\
0.422565045706793: 53:1 231:1 325:1 obj 1\\
0.6118762888086812: 80:1 251:1 278:1 obj 1\\
0.904261511654469: 89:1 250:1 266:1 obj 1\\
1: 99:1 227:1 283:1 obj 1\\
1: 110:1 193:1 315:1 obj 1\\
0.15941135736581: 122:1 195:1 290:1 obj 1\\
0.6993825656365074: 130:1 214:1 268:1 obj 1\\
0.2220207416769578: 146:1 228:1 238:1 obj 1\\
0.4718122360866723: 152:1 164:1 292:1 obj 1\\
0.02451944688818308: 163:1 184:1 265:1 obj 1\\
0.5324666648115671: 174:1 200:1 239:1 obj 1\\
0.5168401921816943: 179:2 253:1 obj 1\\
0.2680587648910731: 186:1 202:1 225:1 obj 1\\
0.4658253530773623: 192:1 196:1 225:1 obj 1\\
0.2512998597185372: 3:1 303:1 312:1 obj 1\\
0.2141920597239079: 21:1 280:1 309:1 obj 1\\
0.09239316665630148: 23:1 272:1 317:1 obj 1\\
0.4767160148993673: 24:1 285:1 299:1 obj 1\\
1: 29:1 274:1 310:1 obj 1\\
1: 33:1 269:1 310:1 obj 1\\
0.577434954293207: 35:1 247:1 325:1 obj 1\\
1: 39:1 187:1 obj 1\\
0.3881237111913188: 41:1 278:1 288:1 obj 1\\
0.2988492344359676: 42:1 255:1 315:1 obj 1\\
0.5736570557007536: 43:1 263:1 306:1 obj 1\\
0.2855546775576377: 43:1 281:1 282:1 obj 1\\
0.2976801585871762: 57:1 243:1 313:1 obj 1\\
0.2347865062243909: 75:1 243:1 289:1 obj 1\\
0.03478110845683499: 79:1 264:1 266:1 obj 1\\
0.2661158820315648: 85:1 225:1 303:1 obj 1\\
0.7167581371192142: 109:1 217:1 286:1 obj 1\\
0.5395369465527523: 121:1 221:1 270:1 obj 1\\
0.598682384265246: 126:1 237:1 245:1 obj 1\\
0.7336930690236045: 130:1 169:1 318:1 obj 1\\
0.6601749289481621: 134:1 232:1 242:1 obj 1\\
0.6811354550965208: 142:1 189:1 281:1 obj 1\\
0.2457642272615157: 146:1 214:1 251:1 obj 1\\
0.4263429442992464: 147:1 163:1 306:1 obj 1\\
0.2851841605400904: 152:1 179:1 279:1 obj 1\\
0.04016697010316428: 152:1 212:1 245:1 obj 1\\
0.1862575585290346: 162:2 282:1 obj 1\\
0.5324666648115671: 167:1 216:1 229:1 obj 1\\
0.1006132021060187: 174:2 263:1 obj 1\\
0.1006815532095322: 0:1 299:1 317:1 obj 1\\
0.7322308789959922: 3:1 304:1 311:1 obj 1\\
0.5281877639133277: 15:1 261:1 327:1 obj 1\\
0.1237158112708254: 17:1 255:1 331:1 obj 1\\
0.04733686861898356: 24:1 251:1 330:1 obj 1\\
0.2458749463249823: 51:1 230:1 329:1 obj 1\\
0.03172949706380179: 77:1 231:1 308:1 obj 1\\
0.4658253530773623: 96:1 238:1 275:1 obj 1\\
0.5341746469226377: 96:1 248:1 260:1 obj 1\\
0.1412738742052151: 110:1 189:1 319:1 obj 1\\
0.09239316665630148: 127:1 240:1 241:1 obj 1\\
0.04041364426609684: 139:1 227:1 244:1 obj 1\\
0.03710799501553841: 152:1 173:1 284:1 obj 1\\
0.3061885867866918: 181:1 186:1 245:1 obj 1\\
0.263153688340983: 184:1 195:1 234:1 obj 1\\



